(set-logic HORN)


(declare-fun |Inv| ( Int Int (Array Int Int) (Array Int (Array Int Int)) (Array Int Int) Int Int Int Int Int Int Int Int Int Int Int Int Int Int Int ) Bool)

(assert
  (forall ( (A Int) (B Int) (C (Array Int Int)) (D (Array Int (Array Int Int))) (E (Array Int Int)) (F Int) (G Int) (H Int) (I Int) (J Int) (K Int) (L Int) (M Int) (N Int) (O Int) (P Int) (Q Int) (R Int) (S Int) (T Int) ) 
    (=>
      (and
        (Inv A B C D E F G H I J K L M N O P Q R S T)
        true
      )
      (Inv A B C D E F G L M N O H I J K P Q R S T)
    )
  )
)
(assert
  (forall ( (A Int) (B Int) (C Int) (D Int) (E (Array Int Int)) (F (Array Int (Array Int Int))) (G (Array Int Int)) (H Int) (I Int) (J Int) (K Int) (L Int) (M Int) (N Int) (O Int) (P Int) (Q Int) (R Int) (S Int) (v_19 Int) ) 
    (=>
      (and
        (and (= A (- 1)) (= B (- 1)) (= 0 v_19))
      )
      (Inv C D E F G H I B J K L A M N O v_19 P Q R S)
    )
  )
)
(assert
  (forall ( (A Int) (B Int) (C (Array Int Int)) (D (Array Int (Array Int Int))) (E (Array Int Int)) (F Int) (G Int) (H Int) (I Int) (J Int) (K Int) (L Int) (M Int) (N Int) (O Int) (P Int) (Q Int) (R Int) (S Int) (T Int) (U Int) (v_21 Int) (v_22 Int) ) 
    (=>
      (and
        (Inv A B C D E F G v_21 H I J K L M N O P Q R S)
        (and (= 1 v_21) (= I T) (= U H) (= 2 v_22))
      )
      (Inv A B C D E F G v_22 H I J K L M N O P Q R S)
    )
  )
)
(assert
  (forall ( (A Int) (B Int) (C (Array Int Int)) (D (Array Int (Array Int Int))) (E (Array Int Int)) (F Int) (G Int) (H Int) (I Int) (J Int) (K Int) (L Int) (M Int) (N Int) (O Int) (P Int) (Q Int) (R Int) (S Int) (v_19 Int) (v_20 Int) (v_21 Int) ) 
    (=>
      (and
        (Inv A B C D E F G v_19 H I J K L M N O P Q R S)
        (and (= 2 v_19) (= N 0) (= 3 v_20) (= v_21 N))
      )
      (Inv A B C D E F G v_20 H I N K L M v_21 O P Q R S)
    )
  )
)
(assert
  (forall ( (A Int) (B Int) (C (Array Int Int)) (D (Array Int (Array Int Int))) (E (Array Int Int)) (F Int) (G Int) (H Int) (I Int) (J Int) (K Int) (L Int) (M Int) (N Int) (O Int) (P Int) (Q Int) (R Int) (S Int) (T Int) (U Int) (V Int) (v_22 Int) (v_23 Int) ) 
    (=>
      (and
        (Inv A B C D E F G v_22 H I J K L M N O P Q R S)
        (let ((a!1 (= (ite (= 4294967295 (mod F 4294967296)) 0 1) T)))
  (and (= 3 v_22) (= V (+ 1 F)) (not (= U 0)) (= U T) a!1 (= 4 v_23)))
      )
      (Inv A B C D E V G v_23 H I J K L M N O P Q R S)
    )
  )
)
(assert
  (forall ( (A Int) (B Int) (C (Array Int Int)) (D (Array Int (Array Int Int))) (E (Array Int Int)) (F Int) (G Int) (H Int) (I Int) (J Int) (K Int) (L Int) (M Int) (N Int) (O Int) (P Int) (Q Int) (R Int) (S Int) (v_19 Int) (v_20 Int) ) 
    (=>
      (and
        (Inv A B C D E F G v_19 H I J K L M N O P Q R S)
        (and (= 4 v_19) (= (mod F 4294967296) 1) (= 5 v_20))
      )
      (Inv A B C D E F G v_20 H I J K L M N O P Q R S)
    )
  )
)
(assert
  (forall ( (A Int) (B Int) (C (Array Int Int)) (D (Array Int (Array Int Int))) (E (Array Int Int)) (F Int) (G Int) (H Int) (I Int) (J Int) (K Int) (L Int) (M Int) (N Int) (O Int) (P Int) (Q Int) (R Int) (S Int) (v_19 Int) (v_20 Int) ) 
    (=>
      (and
        (Inv A B C D E F G v_19 H I J K L M N O P Q R S)
        (and (= 4 v_19) (not (= (mod F 4294967296) 1)) (= 6 v_20))
      )
      (Inv A B C D E F G v_20 H I J K L M N O P Q R S)
    )
  )
)
(assert
  (forall ( (A Int) (B Int) (C (Array Int Int)) (D (Array Int (Array Int Int))) (E (Array Int Int)) (F Int) (G Int) (H Int) (I Int) (J Int) (K Int) (L Int) (M Int) (N Int) (O Int) (P Int) (Q Int) (R Int) (S Int) (T Int) (v_20 Int) (v_21 Int) ) 
    (=>
      (and
        (Inv A B C D E F G v_20 H I J K L M N O P Q R S)
        (and (= 5 v_20) (= G (+ (- 1) T)) (= 7 v_21))
      )
      (Inv A B C D E F T v_21 H I J K L M N O P Q R S)
    )
  )
)
(assert
  (forall ( (A Int) (B Int) (C (Array Int Int)) (D (Array Int (Array Int Int))) (E (Array Int Int)) (F Int) (G Int) (H Int) (I Int) (J Int) (K Int) (L Int) (M Int) (N Int) (O Int) (P Int) (Q Int) (R Int) (S Int) (T Int) (U Int) (v_21 Int) (v_22 Int) ) 
    (=>
      (and
        (Inv A B C D E F G v_21 H I J K L M N O P Q R S)
        (and (= 6 v_21) (= T 0) (= U 0) (= 8 v_22))
      )
      (Inv A B C D E F G v_22 H I J K L M N O P Q R S)
    )
  )
)
(assert
  (forall ( (A Int) (B Int) (C (Array Int Int)) (D (Array Int (Array Int Int))) (E (Array Int Int)) (F Int) (G Int) (H Int) (I Int) (J Int) (K Int) (L Int) (M Int) (N Int) (O Int) (P Int) (Q Int) (R Int) (S Int) (T Int) (v_20 Int) (v_21 Int) ) 
    (=>
      (and
        (Inv A B C D E F G v_20 H I J K L M N O P Q R S)
        (and (= 7 v_20) (= T (+ 1 J)) (= 9 v_21))
      )
      (Inv A B C D E F G v_21 H I T K L M N O P Q R S)
    )
  )
)
(assert
  (forall ( (A Int) (B Int) (C (Array Int Int)) (D (Array Int (Array Int Int))) (E (Array Int Int)) (F Int) (G Int) (H Int) (I Int) (J Int) (K Int) (L Int) (M Int) (N Int) (O Int) (P Int) (Q Int) (R Int) (S Int) (v_19 Int) (v_20 Int) ) 
    (=>
      (and
        (Inv A B C D E F G v_19 H I J K L M N O P Q R S)
        (and (= 8 v_19) (= 10 v_20))
      )
      (Inv A B C D E F G v_20 H I J K L M N O P Q R S)
    )
  )
)
(assert
  (forall ( (A Int) (B Int) (C (Array Int Int)) (D (Array Int (Array Int Int))) (E (Array Int Int)) (F Int) (G Int) (H Int) (I Int) (J Int) (K Int) (L Int) (M Int) (N Int) (O Int) (P Int) (Q Int) (R Int) (S Int) (v_19 Int) (v_20 Int) ) 
    (=>
      (and
        (Inv A B C D E F G v_19 H I J K L M N O P Q R S)
        (and (= 9 v_19) (not (= (mod J 4294967296) (mod G 4294967296))) (= 11 v_20))
      )
      (Inv A B C D E F G v_20 H I J K L M N O P Q R S)
    )
  )
)
(assert
  (forall ( (A Int) (B Int) (C (Array Int Int)) (D (Array Int (Array Int Int))) (E (Array Int Int)) (F Int) (G Int) (H Int) (I Int) (J Int) (K Int) (L Int) (M Int) (N Int) (O Int) (P Int) (Q Int) (R Int) (S Int) (v_19 Int) (v_20 Int) ) 
    (=>
      (and
        (Inv A B C D E F G v_19 H I J K L M N O P Q R S)
        (and (= 9 v_19) (= (mod G 4294967296) (mod J 4294967296)) (= 5 v_20))
      )
      (Inv A B C D E F G v_20 H I J K L M N O P Q R S)
    )
  )
)
(assert
  (forall ( (A Int) (B Int) (C (Array Int Int)) (D (Array Int (Array Int Int))) (E (Array Int Int)) (F Int) (G Int) (H Int) (I Int) (J Int) (K Int) (L Int) (M Int) (N Int) (O Int) (P Int) (Q Int) (R Int) (S Int) (v_19 Int) (v_20 Int) ) 
    (=>
      (and
        (Inv A B C D E F G v_19 H I J K L M N O P Q R S)
        (and (= 11 v_19) (= 0 v_20))
      )
      (Inv A B C D E F G v_20 H I J K L M N O P Q R S)
    )
  )
)
(assert
  (forall ( (A Int) (B Int) (C (Array Int Int)) (D (Array Int (Array Int Int))) (E (Array Int Int)) (F Int) (G Int) (H Int) (I Int) (J Int) (K Int) (L Int) (M Int) (N Int) (O Int) (P Int) (Q Int) (R Int) (S Int) (v_19 Int) (v_20 Int) ) 
    (=>
      (and
        (Inv A B C D E F G H I J K L M N O v_19 P Q R S)
        (and (= 0 v_19) (= 1 v_20))
      )
      (Inv A B C D E F G H I J K L M N O v_20 P Q R S)
    )
  )
)
(assert
  (forall ( (A Int) (B Int) (C (Array Int Int)) (D (Array Int (Array Int Int))) (E (Array Int Int)) (F Int) (G Int) (H Int) (I Int) (J Int) (K Int) (L Int) (M Int) (N Int) (O Int) (P Int) (Q Int) (R Int) (S Int) (T Int) (U Int) (v_21 Int) (v_22 Int) ) 
    (=>
      (and
        (Inv A B C D E F G H I J K L M N O v_21 P Q R S)
        (and (= 1 v_21) (= T 0) (= U 0) (= 2 v_22))
      )
      (Inv A B C D E F G H I J K L M N O v_22 P Q R S)
    )
  )
)
(assert
  (forall ( (A Int) (B Int) (C (Array Int Int)) (D (Array Int (Array Int Int))) (E (Array Int Int)) (F Int) (G Int) (H Int) (I Int) (J Int) (K Int) (L Int) (M Int) (N Int) (O Int) (P Int) (Q Int) (R Int) (S Int) (v_19 Int) (v_20 Int) ) 
    (=>
      (and
        (Inv A B C D E F G H I J K L M N O v_19 P Q R S)
        (and (= 2 v_19) (= (select C 0) 0) (= 3 v_20))
      )
      (Inv A B C D E F G H I J K L M N O v_20 P Q R S)
    )
  )
)
(assert
  (forall ( (A Int) (B Int) (C (Array Int Int)) (D (Array Int (Array Int Int))) (E (Array Int Int)) (F Int) (G Int) (H Int) (I Int) (J Int) (K Int) (L Int) (M Int) (N Int) (O Int) (P Int) (Q Int) (R Int) (S Int) (v_19 Int) (v_20 Int) ) 
    (=>
      (and
        (Inv A B C D E F G H I J K L M N O v_19 P Q R S)
        (and (= 3 v_19) (not (<= A 0)) (= 4 v_20))
      )
      (Inv A B C D E F G H I J K L M N O v_20 P Q R S)
    )
  )
)
(assert
  (forall ( (A Int) (B Int) (C (Array Int Int)) (D (Array Int (Array Int Int))) (E (Array Int Int)) (F Int) (G Int) (H Int) (I Int) (J Int) (K Int) (L Int) (M Int) (N Int) (O Int) (P Int) (Q Int) (R Int) (S Int) (v_19 Int) (v_20 Int) ) 
    (=>
      (and
        (Inv A B C D E F G H I J K L M N O v_19 P Q R S)
        (and (= 4 v_19) (= 2 (select E 1)) (= (select C 1) 1) (= 5 v_20))
      )
      (Inv A B C D E F G H I J K L M N O v_20 P Q R S)
    )
  )
)
(assert
  (forall ( (A Int) (B Int) (C (Array Int Int)) (D (Array Int (Array Int Int))) (E (Array Int Int)) (F Int) (G Int) (H Int) (I Int) (J Int) (K Int) (L Int) (M Int) (N Int) (O Int) (P Int) (Q Int) (R Int) (S Int) (v_19 Int) (v_20 Int) ) 
    (=>
      (and
        (Inv A B C D E F G H I J K L M N O v_19 P Q R S)
        (and (= 5 v_19) (= (select (select D 1) 0) 48) (= 6 v_20))
      )
      (Inv A B C D E F G H I J K L M N O v_20 P Q R S)
    )
  )
)
(assert
  (forall ( (A Int) (B Int) (C (Array Int Int)) (D (Array Int (Array Int Int))) (E (Array Int Int)) (F Int) (G Int) (H Int) (I Int) (J Int) (K Int) (L Int) (M Int) (N Int) (O Int) (P Int) (Q Int) (R Int) (S Int) (v_19 Int) (v_20 Int) ) 
    (=>
      (and
        (Inv A B C D E F G H I J K L M N O v_19 P Q R S)
        (and (= 6 v_19) (= (select (select D 1) 1) 0) (= 7 v_20))
      )
      (Inv A B C D E F G H I J K L M N O v_20 P Q R S)
    )
  )
)
(assert
  (forall ( (A Int) (B Int) (C (Array Int Int)) (D (Array Int (Array Int Int))) (E (Array Int Int)) (F Int) (G Int) (H Int) (I Int) (J Int) (K Int) (L Int) (M Int) (N Int) (O Int) (P Int) (Q Int) (R Int) (S Int) (v_19 Int) (v_20 Int) ) 
    (=>
      (and
        (Inv A B C D E F G H I J K L M N O v_19 P Q R S)
        (and (= 7 v_19) (= (select E 2) 13) (= (select C 2) 1) (= 8 v_20))
      )
      (Inv A B C D E F G H I J K L M N O v_20 P Q R S)
    )
  )
)
(assert
  (forall ( (A Int) (B Int) (C (Array Int Int)) (D (Array Int (Array Int Int))) (E (Array Int Int)) (F Int) (G Int) (H Int) (I Int) (J Int) (K Int) (L Int) (M Int) (N Int) (O Int) (P Int) (Q Int) (R Int) (S Int) (T Int) (v_20 Int) (v_21 Int) ) 
    (=>
      (and
        (Inv A B C D E F G H I J K L M N O v_20 P Q R S)
        (and (= 8 v_20) (= T 0) (= 9 v_21))
      )
      (Inv A B C D E T G H I J K L M N O v_21 P Q R S)
    )
  )
)
(assert
  (forall ( (A Int) (B Int) (C (Array Int Int)) (D (Array Int (Array Int Int))) (E (Array Int Int)) (F Int) (G Int) (H Int) (I Int) (J Int) (K Int) (L Int) (M Int) (N Int) (O Int) (P Int) (Q Int) (R Int) (S Int) (T Int) (v_20 Int) (v_21 Int) ) 
    (=>
      (and
        (Inv A B C D E F G H I J K L M N O v_20 P Q R S)
        (and (= 9 v_20) (= T 0) (= 10 v_21))
      )
      (Inv A B C D E F T H I J K L M N O v_21 P Q R S)
    )
  )
)
(assert
  (forall ( (A Int) (B Int) (C (Array Int Int)) (D (Array Int (Array Int Int))) (E (Array Int Int)) (F Int) (G Int) (H Int) (I Int) (J Int) (K Int) (L Int) (M Int) (N Int) (O Int) (P Int) (Q Int) (R Int) (S Int) (v_19 Int) (v_20 Int) ) 
    (=>
      (and
        (Inv A B C D E F G H I J K L M N O v_19 P Q R S)
        (and (= 10 v_19) (= 11 v_20))
      )
      (Inv A B C D E F G H I J K L M N O v_20 P Q R S)
    )
  )
)
(assert
  (forall ( (A Int) (B Int) (C (Array Int Int)) (D (Array Int (Array Int Int))) (E (Array Int Int)) (F Int) (G Int) (H Int) (I Int) (J Int) (K Int) (L Int) (M Int) (N Int) (O Int) (P Int) (Q Int) (R Int) (S Int) (v_19 Int) (v_20 Int) ) 
    (=>
      (and
        (Inv A B C D E F G H I J K L M N O v_19 P Q R S)
        (and (= 11 v_19) (= 12 v_20))
      )
      (Inv A B C D E F G H I J K L M N O v_20 P Q R S)
    )
  )
)
(assert
  (forall ( (A Int) (B Int) (C (Array Int Int)) (D (Array Int (Array Int Int))) (E (Array Int Int)) (F Int) (G Int) (H Int) (I Int) (J Int) (K Int) (L Int) (M Int) (N Int) (O Int) (P Int) (Q Int) (R Int) (S Int) (T Int) (v_20 Int) (v_21 Int) ) 
    (=>
      (and
        (Inv A B C D E F G H I J K L M N O v_20 P Q R S)
        (and (= 12 v_20) (= 13 v_21))
      )
      (Inv A B C D E F G H I J K L M N O v_21 T Q R S)
    )
  )
)
(assert
  (forall ( (A Int) (B Int) (C (Array Int Int)) (D (Array Int (Array Int Int))) (E (Array Int Int)) (F Int) (G Int) (H Int) (I Int) (J Int) (K Int) (L Int) (M Int) (N Int) (O Int) (P Int) (Q Int) (R Int) (S Int) (T Int) (U Int) (V Int) (v_22 Int) (v_23 Int) ) 
    (=>
      (and
        (Inv A B C D E F G H I J K L M N O v_22 P Q R S)
        (and (= 13 v_22) (= 14 v_23))
      )
      (Inv A B C D E F G H I J K L M N O v_23 P T U V)
    )
  )
)
(assert
  (forall ( (A Int) (B Int) (C (Array Int Int)) (D (Array Int (Array Int Int))) (E (Array Int Int)) (F Int) (G Int) (H Int) (I Int) (J Int) (K Int) (L Int) (M Int) (N Int) (O Int) (P Int) (Q Int) (R Int) (S Int) (T Int) (U (Array Int Int)) (V Int) (W (Array Int Int)) (v_23 Int) (v_24 Int) ) 
    (=>
      (and
        (Inv A B C D E F G H I J K L M N O v_23 P Q R S)
        (and (= 14 v_23)
     (= (store E T 4) W)
     (= (select C T) 0)
     (= V 0)
     (not (= T 0))
     (not (<= T A))
     (= (store C T 1) U)
     (= 15 v_24))
      )
      (Inv A B U D W F G H I J K L M N O v_24 P V T S)
    )
  )
)
(assert
  (forall ( (A Int) (B Int) (C (Array Int Int)) (D (Array Int (Array Int Int))) (E (Array Int Int)) (F Int) (G Int) (H Int) (I Int) (J Int) (K Int) (L Int) (M Int) (N Int) (O Int) (P Int) (Q Int) (R Int) (S Int) (v_19 Int) (v_20 Int) ) 
    (=>
      (and
        (Inv A B C D E F G H I J K L M N O v_19 P Q R S)
        (and (= 15 v_19) (= 17 v_20))
      )
      (Inv A B C D E F G H I J K L M N O v_20 P Q R S)
    )
  )
)
(assert
  (forall ( (A Int) (B Int) (C (Array Int Int)) (D (Array Int (Array Int Int))) (E (Array Int Int)) (F Int) (G Int) (H Int) (I Int) (J Int) (K Int) (L Int) (M Int) (N Int) (O Int) (P Int) (Q Int) (R Int) (S Int) (T (Array Int Int)) (v_20 Int) (v_21 Int) ) 
    (=>
      (and
        (Inv A B C D E F G H I J K L M N O v_20 P Q R S)
        (and (= 16 v_20) (= T (store C R 0)) (= 18 v_21))
      )
      (Inv A B T D E F G H I J K L M N O v_21 P Q R S)
    )
  )
)
(assert
  (forall ( (A Int) (B Int) (C (Array Int Int)) (D (Array Int (Array Int Int))) (E (Array Int Int)) (F Int) (G Int) (H Int) (I Int) (J Int) (K Int) (L Int) (M Int) (N Int) (O Int) (P Int) (Q Int) (R Int) (S Int) (T Int) (v_20 Int) (v_21 Int) ) 
    (=>
      (and
        (Inv A B C D E F G H I J K L M N O v_20 P Q R S)
        (and (= 17 v_20) (= T B) (= 19 v_21))
      )
      (Inv A B C D E F G H I J K L M N O v_21 P Q R T)
    )
  )
)
(assert
  (forall ( (A Int) (B Int) (C (Array Int Int)) (D (Array Int (Array Int Int))) (E (Array Int Int)) (F Int) (G Int) (H Int) (I Int) (J Int) (K Int) (L Int) (M Int) (N Int) (O Int) (P Int) (Q Int) (R Int) (S Int) (T Int) (U Int) (v_21 Int) (v_22 Int) ) 
    (=>
      (and
        (Inv A B C D E F G H I J K L M N O v_21 P Q R S)
        (and (= 18 v_21) (= 20 v_22))
      )
      (Inv A B C D E F G H I J K L M N O v_22 P T U S)
    )
  )
)
(assert
  (forall ( (A Int) (B Int) (C (Array Int Int)) (D (Array Int (Array Int Int))) (E (Array Int Int)) (F Int) (G Int) (H Int) (I Int) (J Int) (K Int) (L Int) (M Int) (N Int) (O Int) (P Int) (Q Int) (R Int) (S Int) (T Int) (v_20 Int) (v_21 Int) ) 
    (=>
      (and
        (Inv A B C D E F G H I J K L M N O v_20 P Q R S)
        (and (= 19 v_20) (= B (+ (- 1) T)) (= 21 v_21))
      )
      (Inv A T C D E F G H I J K L M N O v_21 P Q R S)
    )
  )
)
(assert
  (forall ( (A Int) (B Int) (C (Array Int Int)) (D (Array Int (Array Int Int))) (E (Array Int Int)) (F Int) (G Int) (H Int) (I Int) (J Int) (K Int) (L Int) (M Int) (N Int) (O Int) (P Int) (Q Int) (R Int) (S Int) (T Int) (v_20 Int) (v_21 Int) ) 
    (=>
      (and
        (Inv A B C D E F G H I J K L M N O v_20 P Q R S)
        (and (= 20 v_20) (= P T) (= 22 v_21))
      )
      (Inv A B C D E F G H I J K L M N O v_21 P Q R S)
    )
  )
)
(assert
  (forall ( (A Int) (B Int) (C (Array Int Int)) (D (Array Int (Array Int Int))) (E (Array Int Int)) (F Int) (G Int) (H Int) (I Int) (J Int) (K Int) (L Int) (M Int) (N Int) (O Int) (P Int) (Q Int) (R Int) (S Int) (T (Array Int (Array Int Int))) (v_20 Int) (v_21 Int) ) 
    (=>
      (and
        (Inv A B C D E F G H I J K L M N O v_20 P Q R S)
        (let ((a!1 (= (store D R (store (select D R) Q S)) T)))
  (and (= 21 v_20) a!1 (= 23 v_21)))
      )
      (Inv A B C T E F G H I J K L M N O v_21 P Q R S)
    )
  )
)
(assert
  (forall ( (A Int) (B Int) (C (Array Int Int)) (D (Array Int (Array Int Int))) (E (Array Int Int)) (F Int) (G Int) (H Int) (I Int) (J Int) (K Int) (L Int) (M Int) (N Int) (O Int) (P Int) (Q Int) (R Int) (S Int) (v_19 Int) (v_20 Int) ) 
    (=>
      (and
        (Inv A B C D E F G H I J K L M N O v_19 P Q R S)
        (and (= 22 v_19) (= 24 v_20))
      )
      (Inv A B C D E F G H I J K L M N O v_20 P Q R S)
    )
  )
)
(assert
  (forall ( (A Int) (B Int) (C Int) (D (Array Int Int)) (E (Array Int (Array Int Int))) (F (Array Int Int)) (G Int) (H Int) (I Int) (J Int) (K Int) (L Int) (M Int) (N Int) (O Int) (P Int) (Q Int) (R Int) (S Int) (v_19 Int) (v_20 Int) (v_21 Int) ) 
    (=>
      (and
        (Inv B C D E F G H A I J K L M N O v_19 P Q R S)
        (and (= 23 v_19) (= A (- 1)) (= 1 v_20) (= 25 v_21))
      )
      (Inv B C D E F G H v_20 I J K L M N O v_21 P Q R S)
    )
  )
)
(assert
  (forall ( (A Int) (B Int) (C (Array Int Int)) (D (Array Int (Array Int Int))) (E (Array Int Int)) (F Int) (G Int) (H Int) (I Int) (J Int) (K Int) (L Int) (M Int) (N Int) (O Int) (P Int) (Q Int) (R Int) (S Int) (v_19 Int) (v_20 Int) ) 
    (=>
      (and
        (Inv A B C D E F G H I J K L M N O v_19 P Q R S)
        (and (= 23 v_19) (= 25 v_20))
      )
      (Inv A B C D E F G H I J K L M N O v_20 P Q R S)
    )
  )
)
(assert
  (forall ( (A Int) (B Int) (C (Array Int Int)) (D (Array Int (Array Int Int))) (E (Array Int Int)) (F Int) (G Int) (H Int) (I Int) (J Int) (K Int) (L Int) (M Int) (N Int) (O Int) (P Int) (Q Int) (R Int) (S Int) (v_19 Int) (v_20 Int) ) 
    (=>
      (and
        (Inv A B C D E F G H I J K L M N O v_19 P Q R S)
        (and (= 24 v_19) (= 26 v_20))
      )
      (Inv A B C D E F G H I J K L M N O v_20 P Q R S)
    )
  )
)
(assert
  (forall ( (A Int) (B Int) (C (Array Int Int)) (D (Array Int (Array Int Int))) (E (Array Int Int)) (F Int) (G Int) (H Int) (I Int) (J Int) (K Int) (L Int) (M Int) (N Int) (O Int) (P Int) (Q Int) (R Int) (S Int) (T Int) (v_20 Int) (v_21 Int) ) 
    (=>
      (and
        (Inv A B C D E F G H I J K L M N O v_20 P Q R S)
        (and (= 25 v_20) (= 27 v_21))
      )
      (Inv A B C D E F G H I J K L M N O v_21 P Q R T)
    )
  )
)
(assert
  (forall ( (A Int) (B Int) (C (Array Int Int)) (D (Array Int (Array Int Int))) (E (Array Int Int)) (F Int) (G Int) (H Int) (I Int) (J Int) (K Int) (L Int) (M Int) (N Int) (O Int) (P Int) (Q Int) (R Int) (S Int) (v_19 Int) (v_20 Int) ) 
    (=>
      (and
        (Inv A B C D E F G H I J K L M N O v_19 P Q R S)
        (and (= 27 v_19) (= 15 v_20))
      )
      (Inv A B C D E F G H I J K L M N O v_20 P Q R S)
    )
  )
)
(assert
  (forall ( (A Int) (B Int) (C (Array Int Int)) (D (Array Int (Array Int Int))) (E (Array Int Int)) (F Int) (G Int) (H Int) (I Int) (J Int) (K Int) (L Int) (M Int) (N Int) (O Int) (P Int) (Q Int) (R Int) (S Int) (T Int) (U Int) (V Int) (v_22 Int) (v_23 Int) (v_24 Int) (v_25 Int) ) 
    (=>
      (and
        (Inv A B C D E F G v_22 I J K L M N O P Q R S T)
        (Inv A B C D E F G H I J K v_23 v_24 v_25 O P Q R S T)
        (Inv A B C D E F G H I J K L M N O P Q R S T)
        (and (= 1 v_22) (= 1 v_23) (= v_24 I) (= v_25 J) (= J U) (= V I))
      )
      (Inv A B C D E F G H I J K L M N O P Q R S T)
    )
  )
)
(assert
  (forall ( (A Int) (B Int) (C (Array Int Int)) (D (Array Int (Array Int Int))) (E (Array Int Int)) (F Int) (G Int) (H Int) (I Int) (J Int) (K Int) (L Int) (M Int) (N Int) (O Int) (P Int) (Q Int) (R Int) (S Int) (T Int) (v_20 Int) (v_21 Int) ) 
    (=>
      (and
        (Inv A B C D E F G v_20 I J K L M N O P Q R S T)
        (Inv A B C D E F G H I J K v_21 M N O P Q R S T)
        (Inv A B C D E F G H I J K L M N O P Q R S T)
        (and (= 2 v_20) (= 2 v_21) (= O 0))
      )
      (Inv A B C D E F G H I J K L M N O P Q R S T)
    )
  )
)
(assert
  (forall ( (A Int) (B Int) (C (Array Int Int)) (D (Array Int (Array Int Int))) (E (Array Int Int)) (F Int) (G Int) (H Int) (I Int) (J Int) (K Int) (L Int) (M Int) (N Int) (O Int) (P Int) (Q Int) (R Int) (S Int) (T Int) (U Int) (V Int) (W Int) (v_23 Int) (v_24 Int) ) 
    (=>
      (and
        (Inv A B C D E F G v_23 I J K L M N O P Q R S T)
        (Inv A B C D E F G H I J K v_24 M N O P Q R S T)
        (Inv A B C D E F G H I J K L M N O P Q R S T)
        (let ((a!1 (= (ite (= 4294967295 (mod F 4294967296)) 0 1) U)))
  (and (= 3 v_23) (= 3 v_24) (= W (+ 1 F)) (not (= V 0)) (= V U) a!1))
      )
      (Inv A B C D E W G H I J K L M N O P Q R S T)
    )
  )
)
(assert
  (forall ( (A Int) (B Int) (C (Array Int Int)) (D (Array Int (Array Int Int))) (E (Array Int Int)) (F Int) (G Int) (H Int) (I Int) (J Int) (K Int) (L Int) (M Int) (N Int) (O Int) (P Int) (Q Int) (R Int) (S Int) (T Int) (v_20 Int) (v_21 Int) ) 
    (=>
      (and
        (Inv A B C D E F G v_20 I J K L M N O P Q R S T)
        (Inv A B C D E F G H I J K v_21 M N O P Q R S T)
        (Inv A B C D E F G H I J K L M N O P Q R S T)
        (and (= 4 v_20) (= 4 v_21) (= (mod F 4294967296) 1))
      )
      (Inv A B C D E F G H I J K L M N O P Q R S T)
    )
  )
)
(assert
  (forall ( (A Int) (B Int) (C (Array Int Int)) (D (Array Int (Array Int Int))) (E (Array Int Int)) (F Int) (G Int) (H Int) (I Int) (J Int) (K Int) (L Int) (M Int) (N Int) (O Int) (P Int) (Q Int) (R Int) (S Int) (T Int) (v_20 Int) (v_21 Int) ) 
    (=>
      (and
        (Inv A B C D E F G v_20 I J K L M N O P Q R S T)
        (Inv A B C D E F G H I J K v_21 M N O P Q R S T)
        (Inv A B C D E F G H I J K L M N O P Q R S T)
        (and (= 4 v_20) (= 4 v_21) (not (= (mod F 4294967296) 1)))
      )
      (Inv A B C D E F G H I J K L M N O P Q R S T)
    )
  )
)
(assert
  (forall ( (A Int) (B Int) (C (Array Int Int)) (D (Array Int (Array Int Int))) (E (Array Int Int)) (F Int) (G Int) (H Int) (I Int) (J Int) (K Int) (L Int) (M Int) (N Int) (O Int) (P Int) (Q Int) (R Int) (S Int) (T Int) (U Int) (v_21 Int) (v_22 Int) ) 
    (=>
      (and
        (Inv A B C D E F G v_21 I J K L M N O P Q R S T)
        (Inv A B C D E F G H I J K v_22 M N O P Q R S T)
        (Inv A B C D E F G H I J K L M N O P Q R S T)
        (and (= 5 v_21) (= 5 v_22) (= G (+ (- 1) U)))
      )
      (Inv A B C D E F U H I J K L M N O P Q R S T)
    )
  )
)
(assert
  (forall ( (A Int) (B Int) (C (Array Int Int)) (D (Array Int (Array Int Int))) (E (Array Int Int)) (F Int) (G Int) (H Int) (I Int) (J Int) (K Int) (L Int) (M Int) (N Int) (O Int) (P Int) (Q Int) (R Int) (S Int) (T Int) (U Int) (V Int) (v_22 Int) (v_23 Int) ) 
    (=>
      (and
        (Inv A B C D E F G v_22 I J K L M N O P Q R S T)
        (Inv A B C D E F G H I J K v_23 M N O P Q R S T)
        (Inv A B C D E F G H I J K L M N O P Q R S T)
        (and (= 6 v_22) (= 6 v_23) (= U 0) (= V 0))
      )
      (Inv A B C D E F G H I J K L M N O P Q R S T)
    )
  )
)
(assert
  (forall ( (A Int) (B Int) (C (Array Int Int)) (D (Array Int (Array Int Int))) (E (Array Int Int)) (F Int) (G Int) (H Int) (I Int) (J Int) (K Int) (L Int) (M Int) (N Int) (O Int) (P Int) (Q Int) (R Int) (S Int) (T Int) (U Int) (V Int) (v_22 Int) (v_23 Int) ) 
    (=>
      (and
        (Inv A B C D E F G v_22 I J U L M N O P Q R S T)
        (Inv A B C D E F G H I J K v_23 M N U P Q R S T)
        (Inv A B C D E F G H I J K L M N O P Q R S T)
        (and (= 7 v_22) (= 7 v_23) (= V (+ 1 U)))
      )
      (Inv A B C D E F G H I J K L M N O P Q R S T)
    )
  )
)
(assert
  (forall ( (A Int) (B Int) (C (Array Int Int)) (D (Array Int (Array Int Int))) (E (Array Int Int)) (F Int) (G Int) (H Int) (I Int) (J Int) (K Int) (L Int) (M Int) (N Int) (O Int) (P Int) (Q Int) (R Int) (S Int) (T Int) (v_20 Int) (v_21 Int) ) 
    (=>
      (and
        (Inv A B C D E F G H I J K L M N O P Q R S T)
        (Inv A B C D E F G v_20 I J K L M N O P Q R S T)
        (Inv A B C D E F G H I J K v_21 M N O P Q R S T)
        (and (= 8 v_20) (= 8 v_21))
      )
      (Inv A B C D E F G H I J K L M N O P Q R S T)
    )
  )
)
(assert
  (forall ( (A Int) (B Int) (C (Array Int Int)) (D (Array Int (Array Int Int))) (E (Array Int Int)) (F Int) (G Int) (H Int) (I Int) (J Int) (K Int) (L Int) (M Int) (N Int) (O Int) (P Int) (Q Int) (R Int) (S Int) (T Int) (U Int) (v_21 Int) (v_22 Int) ) 
    (=>
      (and
        (Inv A B C D E F G v_21 I J U L M N O P Q R S T)
        (Inv A B C D E F G H I J K v_22 M N U P Q R S T)
        (Inv A B C D E F G H I J K L M N O P Q R S T)
        (and (= 9 v_21) (= 9 v_22) (not (= (mod U 4294967296) (mod G 4294967296))))
      )
      (Inv A B C D E F G H I J K L M N O P Q R S T)
    )
  )
)
(assert
  (forall ( (A Int) (B Int) (C (Array Int Int)) (D (Array Int (Array Int Int))) (E (Array Int Int)) (F Int) (G Int) (H Int) (I Int) (J Int) (K Int) (L Int) (M Int) (N Int) (O Int) (P Int) (Q Int) (R Int) (S Int) (T Int) (v_20 Int) (v_21 Int) (v_22 Int) ) 
    (=>
      (and
        (Inv A B C D E F G v_20 I J K L M N O P Q R S T)
        (Inv A B C D E F G H I J K v_21 M N v_22 P Q R S T)
        (Inv A B C D E F G H I J K L M N O P Q R S T)
        (and (= 9 v_20) (= 9 v_21) (= v_22 K) (= (mod G 4294967296) (mod K 4294967296)))
      )
      (Inv A B C D E F G H I J K L M N O P Q R S T)
    )
  )
)
(assert
  (forall ( (A Int) (B Int) (C (Array Int Int)) (D (Array Int (Array Int Int))) (E (Array Int Int)) (F Int) (G Int) (H Int) (I Int) (J Int) (K Int) (L Int) (M Int) (N Int) (O Int) (P Int) (Q Int) (R Int) (S Int) (T Int) (v_20 Int) (v_21 Int) ) 
    (=>
      (and
        (Inv A B C D E F G H I J K L M N O P Q R S T)
        (Inv A B C D E F G v_20 I J K L M N O P Q R S T)
        (Inv A B C D E F G H I J K v_21 M N O P Q R S T)
        (and (= 11 v_20) (= 11 v_21))
      )
      (Inv A B C D E F G H I J K L M N O P Q R S T)
    )
  )
)
(assert
  (forall ( (A Int) (B Int) (C (Array Int Int)) (D (Array Int (Array Int Int))) (E (Array Int Int)) (F Int) (G Int) (H Int) (I Int) (J Int) (K Int) (L Int) (M Int) (N Int) (O Int) (P Int) (Q Int) (R Int) (S Int) (v_19 Int) ) 
    (=>
      (and
        (Inv A B C D E F G v_19 H I J K L M N O P Q R S)
        (= 0 v_19)
      )
      false
    )
  )
)

(check-sat)
(exit)
